NAME : rnd28_20.tsp
TYPE : TSP
DIMENSION : 20
EDGE_WEIGHT_TYPE : EUC_2D
NODE_COORD_SECTION
0 349 787
1 804 269
2 109 198
3 408 392
4 101 499
5 745 147
6 128 509
7 368 414
8 125 953
9 252 401
10 520 34
11 223 850
12 287 677
13 671 460
14 367 560
15 582 289
16 926 272
17 491 676
18 464 469
19 354 840
